(set-info :source |printed by MathSAT|)
(declare-fun |!{a1.1}| () (Array Int Int))
(declare-fun |!{a1.1}.next| () (Array Int Int))
(declare-fun |!{a2.2}| () (Array Int Int))
(declare-fun |!{a2.2}.next| () (Array Int Int))
(declare-fun |!{N}| () Int)
(declare-fun |!{N}.next| () Int)
(declare-fun |!{i}| () Int)
(declare-fun |!{i}.next| () Int)
(declare-fun |!{j}| () Int)
(declare-fun |!{j}.next| () Int)
(declare-fun |!pc[0]| () Bool)
(declare-fun |!pc[0].next| () Bool)
(declare-fun |!pc[1]| () Bool)
(declare-fun |!pc[1].next| () Bool)
(declare-fun |!pc[2]| () Bool)
(declare-fun |!pc[2].next| () Bool)
(declare-fun |%{a1.1}#1| () (Array Int Int))
(declare-fun |%{a2.2}#1| () (Array Int Int))
(declare-fun nd_int<0> () Int)
(declare-fun nd<0> () Int)
(define-fun .def_34 () Bool (! |!pc[2]| :next |!pc[2].next|))
(define-fun .def_39 () Bool (not .def_34))
(define-fun .def_32 () Bool (! |!pc[1]| :next |!pc[1].next|))
(define-fun .def_37 () Bool (not .def_32))
(define-fun .def_30 () Bool (! |!pc[0]| :next |!pc[0].next|))
(define-fun .def_36 () Bool (not .def_30))
(define-fun .def_38 () Bool (and .def_36 .def_37))
(define-fun .def_40 () Bool (! (and .def_38 .def_39) :init true))
(define-fun .def_155 () Bool (and .def_30 .def_37))
(define-fun .def_156 () Bool (and .def_39 .def_155))
(define-fun .def_116 () Bool (not |!pc[0].next|))
(define-fun .def_117 () Bool (and |!pc[1].next| .def_116))
(define-fun .def_64 () Bool (not |!pc[2].next|))
(define-fun .def_118 () Bool (and .def_64 .def_117))
(define-fun .def_159 () Bool (and .def_118 .def_156))
(define-fun .def_12 () Int (! |!{N}| :next |!{N}.next|))
(define-fun .def_86 () Bool (= .def_12 |!{N}.next|))
(define-fun .def_10 () (Array Int Int) (! |!{a2.2}| :next |!{a2.2}.next|))
(define-fun .def_84 () Bool (= .def_10 |!{a2.2}.next|))
(define-fun .def_8 () (Array Int Int) (! |!{a1.1}| :next |!{a1.1}.next|))
(define-fun .def_83 () Bool (= .def_8 |!{a1.1}.next|))
(define-fun .def_85 () Bool (and .def_83 .def_84))
(define-fun .def_87 () Bool (and .def_85 .def_86))
(define-fun .def_57 () Bool (= |!{i}.next| 1))
(define-fun .def_152 () Bool (and .def_57 .def_87))
(define-fun .def_59 () Bool (= |!{j}.next| 0))
(define-fun .def_153 () Bool (and .def_59 .def_152))
(define-fun .def_14 () Int (! |!{i}| :next |!{i}.next|))
(define-fun .def_68 () Bool (<= .def_12 .def_14))
(define-fun .def_154 () Bool (and .def_68 .def_153))
(define-fun .def_160 () Bool (and .def_154 .def_159))
(define-fun .def_62 () Bool (not |!pc[1].next|))
(define-fun .def_63 () Bool (and |!pc[0].next| .def_62))
(define-fun .def_65 () Bool (and .def_63 .def_64))
(define-fun .def_157 () Bool (and .def_65 .def_156))
(define-fun .def_16 () Int (! |!{j}| :next |!{j}.next|))
(define-fun .def_145 () (Array Int Int) (store .def_10 .def_16 nd<0>))
(define-fun .def_146 () Bool (= |!{a2.2}.next| .def_145))
(define-fun .def_135 () (Array Int Int) (store .def_8 .def_14 nd<0>))
(define-fun .def_138 () Bool (= |!{a1.1}.next| .def_135))
(define-fun .def_147 () Bool (and .def_138 .def_146))
(define-fun .def_148 () Bool (and .def_86 .def_147))
(define-fun .def_96 () Int (* (- 1) |!{i}.next|))
(define-fun .def_97 () Int (+ .def_14 .def_96))
(define-fun .def_98 () Bool (= .def_97 (- 2)))
(define-fun .def_149 () Bool (and .def_98 .def_148))
(define-fun .def_100 () Int (* (- 1) |!{j}.next|))
(define-fun .def_101 () Int (+ .def_16 .def_100))
(define-fun .def_102 () Bool (= .def_101 (- 1)))
(define-fun .def_150 () Bool (and .def_102 .def_149))
(define-fun .def_69 () Bool (not .def_68))
(define-fun .def_151 () Bool (and .def_69 .def_150))
(define-fun .def_158 () Bool (and .def_151 .def_157))
(define-fun .def_161 () Bool (or .def_158 .def_160))
(define-fun .def_128 () Bool (and .def_30 .def_32))
(define-fun .def_129 () Bool (and .def_39 .def_128))
(define-fun .def_112 () Bool (and |!pc[0].next| |!pc[1].next|))
(define-fun .def_113 () Bool (and .def_64 .def_112))
(define-fun .def_130 () Bool (and .def_113 .def_129))
(define-fun .def_90 () Bool (= .def_16 |!{j}.next|))
(define-fun .def_88 () Bool (= .def_14 |!{i}.next|))
(define-fun .def_89 () Bool (and .def_87 .def_88))
(define-fun .def_91 () Bool (and .def_89 .def_90))
(define-fun .def_131 () Bool (and .def_91 .def_130))
(define-fun .def_122 () Bool (and .def_62 .def_116))
(define-fun .def_123 () Bool (and |!pc[2].next| .def_122))
(define-fun .def_110 () Bool (and .def_32 .def_36))
(define-fun .def_111 () Bool (and .def_39 .def_110))
(define-fun .def_124 () Bool (and .def_111 .def_123))
(define-fun .def_105 () Bool (and .def_68 .def_83))
(define-fun .def_106 () Bool (and .def_84 .def_105))
(define-fun .def_107 () Bool (and .def_86 .def_106))
(define-fun .def_108 () Bool (and .def_88 .def_107))
(define-fun .def_109 () Bool (and .def_90 .def_108))
(define-fun .def_125 () Bool (and .def_109 .def_124))
(define-fun .def_119 () Bool (and .def_111 .def_118))
(define-fun .def_99 () Bool (and .def_87 .def_98))
(define-fun .def_103 () Bool (and .def_99 .def_102))
(define-fun .def_104 () Bool (and .def_69 .def_103))
(define-fun .def_120 () Bool (and .def_104 .def_119))
(define-fun .def_114 () Bool (and .def_111 .def_113))
(define-fun .def_75 () Int (select .def_10 .def_16))
(define-fun .def_71 () Int (* 2 .def_16))
(define-fun .def_73 () Int (+ .def_71 1))
(define-fun .def_74 () Int (select .def_8 .def_73))
(define-fun .def_76 () Bool (= .def_74 .def_75))
(define-fun .def_77 () Bool (not .def_76))
(define-fun .def_92 () Bool (and .def_77 .def_91))
(define-fun .def_93 () Bool (and .def_69 .def_92))
(define-fun .def_115 () Bool (and .def_93 .def_114))
(define-fun .def_121 () Bool (or .def_115 .def_120))
(define-fun .def_126 () Bool (or .def_121 .def_125))
(define-fun .def_66 () Bool (and .def_40 .def_65))
(define-fun .def_55 () Bool (= |!{N}.next| nd_int<0>))
(define-fun .def_53 () Bool (= |!{a2.2}.next| |%{a2.2}#1|))
(define-fun .def_52 () Bool (= |!{a1.1}.next| |%{a1.1}#1|))
(define-fun .def_54 () Bool (and .def_52 .def_53))
(define-fun .def_56 () Bool (and .def_54 .def_55))
(define-fun .def_58 () Bool (and .def_56 .def_57))
(define-fun .def_60 () Bool (and .def_58 .def_59))
(define-fun .def_49 () Bool (<= nd_int<0> 0))
(define-fun .def_50 () Bool (not .def_49))
(define-fun .def_61 () Bool (and .def_50 .def_60))
(define-fun .def_67 () Bool (and .def_61 .def_66))
(define-fun .def_127 () Bool (or .def_67 .def_126))
(define-fun .def_132 () Bool (or .def_127 .def_131))
(define-fun .def_162 () Bool (! (or .def_132 .def_161) :trans true))
(define-fun .def_163 () Bool (! (not .def_129) :invar-property 0))
(assert true)
